p wcnf 104 156 157 
1 90 -64 0 
1 -12 -62 0 
1 10 -82 0 
1 -41 -15 0 
1 18 10 0 
1 76 14 0 
1 -37 -62 0 
1 -40 97 0 
1 101 50 0 
1 -9 5 0 
1 53 38 0 
1 -16 37 0 
1 32 63 0 
1 -16 -73 0 
1 -80 -54 0 
1 50 -97 0 
1 -37 16 0 
1 3 -20 0 
1 49 20 0 
1 -104 70 0 
1 3 28 0 
1 -79 -70 0 
1 -60 81 0 
1 4 87 0 
1 -58 60 0 
1 -60 -57 0 
1 2 99 0 
1 -90 99 0 
1 72 -56 0 
1 -55 15 0 
1 -86 77 0 
1 -10 64 0 
1 103 -28 0 
1 -19 -62 0 
1 -55 -29 0 
1 42 89 0 
1 53 16 0 
1 58 36 0 
1 85 -35 0 
1 -63 -57 0 
1 69 65 0 
1 -52 -17 0 
1 -37 48 0 
1 7 -102 0 
1 28 97 0 
1 38 -100 0 
1 -100 88 0 
1 54 50 0 
1 72 25 0 
1 -95 -75 0 
1 66 -47 0 
1 -97 -60 0 
1 -27 79 0 
1 39 -12 0 
1 47 34 0 
1 -72 -58 0 
1 16 63 0 
1 -87 59 0 
1 -33 -10 0 
1 -36 99 0 
1 -87 -30 0 
1 -29 -50 0 
1 -13 68 0 
1 80 60 0 
1 46 -11 0 
1 -94 -13 0 
1 -104 -10 0 
1 -54 -87 0 
1 -26 -28 0 
1 71 -103 0 
1 -6 80 0 
1 -89 -76 0 
1 -47 -35 0 
1 -89 57 0 
1 -60 11 0 
1 -27 -13 0 
1 -62 61 0 
1 -58 -27 0 
1 33 57 0 
1 24 25 0 
1 28 23 0 
1 83 43 0 
1 12 41 0 
1 73 -96 0 
1 -32 -48 0 
1 59 69 0 
1 -80 -60 0 
1 -18 24 0 
1 29 86 0 
1 -85 41 0 
1 -101 -71 0 
1 -74 84 0 
1 -58 -77 0 
1 24 45 0 
1 -64 -98 0 
1 16 104 0 
1 -51 24 0 
1 -20 103 0 
1 100 72 0 
1 80 55 0 
1 95 73 0 
1 -33 23 0 
1 -101 -90 0 
1 -101 22 0 
1 -11 -81 0 
1 94 91 0 
1 -48 6 0 
1 -80 83 0 
1 -92 -60 0 
1 16 -84 0 
1 47 16 0 
1 -73 -1 0 
1 -90 10 0 
1 104 -48 0 
1 96 64 0 
1 77 -9 0 
1 7 -19 0 
1 28 101 0 
1 -79 -13 0 
1 2 49 0 
1 2 -87 0 
1 -26 30 0 
1 -39 -68 0 
1 31 12 0 
1 25 56 0 
1 -81 -66 0 
1 14 -62 0 
1 76 -50 0 
1 -18 -40 0 
1 -27 26 0 
1 -38 59 0 
1 102 -64 0 
1 -54 -27 0 
1 -10 -68 0 
1 74 38 0 
1 -75 -11 0 
1 82 63 0 
1 28 22 0 
1 25 95 0 
1 -52 39 0 
1 -83 -21 0 
1 7 -72 0 
1 75 -100 0 
1 97 -49 0 
1 22 37 0 
1 89 28 0 
1 -49 54 0 
1 -98 -104 0 
1 -52 8 0 
1 -42 -17 0 
1 24 85 0 
1 -66 81 0 
1 102 -98 0 
1 -82 -46 0 
1 19 -10 0 
1 69 -99 0 
